proyfinal/src/viki/013/experimentInOfficeAgust.take6.output/4f269366-927a-4d34-80a5-8811db38eef5.als.dat
{'cnf.clauses': '118081',
 'cnf.totvars': '69608',
 'conflict literals': '207',
 'conflicts': '43',
 'decisions': '2565',
 'memused.mb': '14.57',
 'outcome': 'UNSAT',
 'propagations': '79640',
 'restarts': '1',
 'solver.msecs': 31,
 'task.msecs': 84}
