proyfinal/src/viki/013/experimentInOfficeAgust.take6.output/4f269366-927a-4d34-80a5-8811db38eef5.als.out
Reading from standard input... Use '--help' for help.
============================[ Problem Statistics ]=============================
|                                                                             |
|  Number of variables:         69608                                         |
|  Number of clauses:          118081                                         |
|  Parse time:                   0.02 s                                       |
|                                                                             |
============================[ Search Statistics ]==============================
| Conflicts |          ORIGINAL         |          LEARNT          | Progress |
|           |    Vars  Clauses Literals |    Limit  Clauses Lit/Cl |          |
===============================================================================
===============================================================================
restarts              : 1
conflicts             : 43             (1346 /sec)
decisions             : 2565           (0.00 % random) (80307 /sec)
propagations          : 79640          (2493425 /sec)
conflict literals     : 207            (20.38 % deleted)
Memory used           : 14.57 MB
CPU time              : 0.03194 s

UNSATISFIABLE
